NAME: toy5
TYPE: TSP
COMMENT: 29 cities in Bavaria, street distances (Groetschel,Juenger,Reinelt)
DIMENSION: 8
EDGE_WEIGHT_TYPE: EXPLICIT
EDGE_WEIGHT_FORMAT: FULL_MATRIX 
EDGE_WEIGHT_SECTION
 0  1  2  3  4  5  6  7
 1  0  3  4  5  6  7  8
 2  3  0  5  6  7  8  9
 3  4  5  0  7  8  9  1
 4  5  6  7  0  9  1  2
 5  6  7  8  9  0  2  3
 6  7  8  9  1  2  0  4
 7  8  9  1  2  3  4  0
EOF
